Maximize
  7 x_labradors + 10 x_golden_retrievers
Subject To
  c1: 5 x_labradors + 6 x_golden_retrievers <= 1500
  c2: x_golden_retrievers >= 50
  c3: 0.4 x_labradors - 0.6 x_golden_retrievers <= 0
Integer
  x_labradors x_golden_retrievers
End